\ LP format - for model browsing. Use MPS format to capture full model detail.
Minimize
  5.830951894845301 y_0,1 + 8 y_0,2 + 2.23606797749979 y_0,3
   + 5.656854249492381 y_0,4 + 7 y_0,5 + 19.20937271229855 y_0,6
   + 4.242640687119285 y_1,2 + 5 y_1,3 + 5.099019513592784 y_1,4
   + 3.605551275463989 y_1,5 + 10.63014581273465 y_1,6
   + 19.84943324127921 y_1,7 + 4.242640687119285 y_2,1
   + 9.219544457292887 y_2,3 + 11.6619037896906 y_2,4
   + 10.63014581273465 y_2,5 + 11.18033988749895 y_2,6
   + 20.591260281974 y_2,7 + 5 y_3,1 + 9.219544457292887 y_3,2
   + 2.23606797749979 y_3,4 + 4.47213595499958 y_3,5
   + 18.38477631085023 y_3,6 + 27.65863337187866 y_3,7
   + 5.099019513592784 y_4,1 + 11.6619037896906 y_4,2
   + 2.23606797749979 y_4,3 + 2.236067977499789 y_4,5
   + 16.64331697709324 y_4,6 + 26.0768096208106 y_4,7
   + 3.605551275463989 y_5,1 + 10.63014581273465 y_5,2
   + 4.47213595499958 y_5,3 + 2.236067977499789 y_5,4
   + 10.295630140987 y_5,6 + 19.72308292331602 y_5,7
   + 10.63014581273465 y_6,1 + 11.18033988749895 y_6,2
   + 18.38477631085023 y_6,3 + 16.64331697709324 y_6,4
   + 10.295630140987 y_6,5 + 5.385164807134504 y_6,7 + v
Subject To
 deg1_row0: y_0,0 + y_0,1 + y_0,2 + y_0,3 + y_0,4 + y_0,5 + y_0,6 + y_0,7
   = 1
 deg1_col0: y_0,0 + y_1,0 + y_2,0 + y_3,0 + y_4,0 + y_5,0 + y_6,0 + y_7,0
   = 1
 deg1_row1: y_1,0 + y_1,1 + y_1,2 + y_1,3 + y_1,4 + y_1,5 + y_1,6 + y_1,7
   = 1
 deg1_col1: y_0,1 + y_1,1 + y_2,1 + y_3,1 + y_4,1 + y_5,1 + y_6,1 + y_7,1
   = 1
 deg1_row2: y_2,0 + y_2,1 + y_2,2 + y_2,3 + y_2,4 + y_2,5 + y_2,6 + y_2,7
   = 1
 deg1_col2: y_0,2 + y_1,2 + y_2,2 + y_3,2 + y_4,2 + y_5,2 + y_6,2 + y_7,2
   = 1
 deg1_row3: y_3,0 + y_3,1 + y_3,2 + y_3,3 + y_3,4 + y_3,5 + y_3,6 + y_3,7
   = 1
 deg1_col3: y_0,3 + y_1,3 + y_2,3 + y_3,3 + y_4,3 + y_5,3 + y_6,3 + y_7,3
   = 1
 deg1_row4: y_4,0 + y_4,1 + y_4,2 + y_4,3 + y_4,4 + y_4,5 + y_4,6 + y_4,7
   = 1
 deg1_col4: y_0,4 + y_1,4 + y_2,4 + y_3,4 + y_4,4 + y_5,4 + y_6,4 + y_7,4
   = 1
 deg1_row5: y_5,0 + y_5,1 + y_5,2 + y_5,3 + y_5,4 + y_5,5 + y_5,6 + y_5,7
   = 1
 deg1_col5: y_0,5 + y_1,5 + y_2,5 + y_3,5 + y_4,5 + y_5,5 + y_6,5 + y_7,5
   = 1
 deg1_row6: y_6,0 + y_6,1 + y_6,2 + y_6,3 + y_6,4 + y_6,5 + y_6,6 + y_6,7
   = 1
 deg1_col6: y_0,6 + y_1,6 + y_2,6 + y_3,6 + y_4,6 + y_5,6 + y_6,6 + y_7,6
   = 1
 deg1_row7: y_7,0 + y_7,1 + y_7,2 + y_7,3 + y_7,4 + y_7,5 + y_7,6 + y_7,7
   = 1
 deg1_col7: y_0,7 + y_1,7 + y_2,7 + y_3,7 + y_4,7 + y_5,7 + y_6,7 + y_7,7
   = 1
Bounds
 y_0,0 = 0
 y_1,1 = 0
 y_2,2 = 0
 y_3,3 = 0
 y_4,4 = 0
 y_5,5 = 0
 y_6,6 = 0
 y_7,0 = 1
 y_7,7 = 0
Binaries
 y_0,0 y_0,1 y_0,2 y_0,3 y_0,4 y_0,5 y_0,6 y_0,7 y_1,0 y_1,1 y_1,2 y_1,3
 y_1,4 y_1,5 y_1,6 y_1,7 y_2,0 y_2,1 y_2,2 y_2,3 y_2,4 y_2,5 y_2,6 y_2,7
 y_3,0 y_3,1 y_3,2 y_3,3 y_3,4 y_3,5 y_3,6 y_3,7 y_4,0 y_4,1 y_4,2 y_4,3
 y_4,4 y_4,5 y_4,6 y_4,7 y_5,0 y_5,1 y_5,2 y_5,3 y_5,4 y_5,5 y_5,6 y_5,7
 y_6,0 y_6,1 y_6,2 y_6,3 y_6,4 y_6,5 y_6,6 y_6,7 y_7,0 y_7,1 y_7,2 y_7,3
 y_7,4 y_7,5 y_7,6 y_7,7
End
